certificates/rado_a9_c160_N19.drat
-18 -19 0
-19 0
8 0
18 0
-16 0
-6 0
-10 0
3 0
5 0
17 0
-1 0
0
